NAME : amz2670.101821_94321.tour
COMMENT : Cost = 101821_94321
COMMENT : Found by LKH-AMZ [Keld Helsgaun] Sun May 11 14:06:00 2025
COMMENT : TW viol.: 0 #: 0
TYPE : TOUR
DIMENSION : 130
TOUR_SECTION
100
44
67
99
104
21
39
93
117
76
27
105
75
37
111
115
28
96
95
55
9
74
63
40
103
50
45
56
116
24
62
121
8
69
20
54
82
120
118
17
79
126
32
106
101
47
48
30
49
102
98
1
94
107
26
22
59
35
46
51
31
68
7
89
123
125
85
57
10
72
29
14
41
19
64
71
78
65
87
97
110
81
109
114
3
36
38
73
129
34
108
84
60
127
42
4
122
25
11
5
6
16
52
130
61
124
113
77
58
12
23
33
86
92
15
66
18
128
53
91
43
80
88
119
13
70
112
90
83
2
-1
EOF
